proyfinal/src/viki/013/experimentInOfficeAgust.take6.output/651b3618-8b8a-4faa-806f-fc8bb1f2f4ce.als.dat
{'cnf.clauses': '118081',
 'cnf.totvars': '69608',
 'conflict literals': '56',
 'conflicts': '23',
 'decisions': '4594',
 'memused.mb': '16.19',
 'outcome': 'UNSAT',
 'propagations': '26085',
 'restarts': '1',
 'solver.msecs': 35,
 'task.msecs': 90}
