proyfinal/src/viki/013/experimentInOfficeAgust.take6.output/651b3618-8b8a-4faa-806f-fc8bb1f2f4ce.als.out
Reading from standard input... Use '--help' for help.
============================[ Problem Statistics ]=============================
|                                                                             |
|  Number of variables:         69608                                         |
|  Number of clauses:          118081                                         |
|  Parse time:                   0.02 s                                       |
|                                                                             |
============================[ Search Statistics ]==============================
| Conflicts |          ORIGINAL         |          LEARNT          | Progress |
|           |    Vars  Clauses Literals |    Limit  Clauses Lit/Cl |          |
===============================================================================
===============================================================================
restarts              : 1
conflicts             : 23             (652 /sec)
decisions             : 4594           (0.00 % random) (130282 /sec)
propagations          : 26085          (739748 /sec)
conflict literals     : 56             (0.00 % deleted)
Memory used           : 16.19 MB
CPU time              : 0.035262 s

UNSATISFIABLE
